
<<< setup


<<< generate

Version identifier: 22.1.1.0 | 2022-11-27 | 9160aff4d
Tried aggregator 1 time.
MIQCP Presolve eliminated 708 rows and 1 columns.
MIQCP Presolve modified 2400 coefficients.
Reduced MIQCP has 5681 rows, 5219 columns, and 59744 nonzeros.
Reduced MIQCP has 250 binaries, 0 generals, 0 SOSs, and 0 indicators.
Reduced MIQCP has 852 quadratic constraints.
Presolve time = 0,23 sec. (215,06 ticks)
Probing fixed 0 vars, tightened 3494 bounds.
Probing time = 0,11 sec. (126,52 ticks)
Clique table members: 1170.
MIP emphasis: balance optimality and feasibility.
MIP search method: dynamic search.
Parallel mode: deterministic, using up to 12 threads.
Root relaxation solution time = 0,06 sec. (115,79 ticks)

        Nodes                                         Cuts/
   Node  Left     Objective  IInf  Best Integer    Best Bound    ItCnt     Gap

      0     0     5054,1018     0                  17851,5511      481         
      0     0     5036,2916   199                     Cone: 1      809         
      0     0     5025,8139   203                     Cone: 2     1081         
      0     0     5019,7274   207                     Cone: 3     1344         
      0     0     5015,0124   209                     Cone: 4     1564         
      0     0     5007,4150   209                     Cone: 5     1815         
      0     0     5000,2327   210                     Cone: 6     2043         
